Optimal - objective value -74.31597700
      0 squad[308,6]                                    1                      0
      1 squad[308,7]                                    1                      0
      2 squad[355,6]                                    1                      0
      3 squad[355,7]                                    1                      0
      6 squad[19,6]                                     1                      0
      7 squad[19,7]                                     1                      0
     12 squad[373,6]                                    1                      0
     13 squad[373,7]                                    1                      0
     16 squad[108,6]                                    1                      0
     17 squad[108,7]                                    1                      0
     28 squad[131,6]                                    1                      0
     29 squad[131,7]                                    1                      0
     50 squad[433,6]                                    1                      0
     51 squad[433,7]                                    1                      0
     58 squad[275,6]                                    1                      0
     59 squad[275,7]                                    1                      0
     81 squad[161,7]                                    1                      0
    112 squad[519,6]                                    1                      0
    113 squad[519,7]                                    1                      0
    172 squad[230,6]                                    1                      0
    173 squad[230,7]                                    1                      0
    196 squad[112,6]                                    1                      0
    197 squad[112,7]                                    1                      0
    204 squad[197,6]                                    1                      0
    205 squad[197,7]                                    1                      0
    324 squad[318,6]                                    1                      0
    325 squad[318,7]                                    1                      0
    680 squad[538,6]                                    1                      0
    681 squad[538,7]                                    1                      0
    706 squad[365,6]                                    1                      0
   1119 lineup[308,7]                                   1                 -6.314
   1120 lineup[355,7]                                   1                  -7.51
   1122 lineup[19,7]                                    1                 -6.394
   1125 lineup[373,7]                                   1                 -5.064
   1127 lineup[108,7]                                   1                 -5.535
   1133 lineup[131,7]                                   1                 -4.422
   1144 lineup[433,7]                                   1                 -5.295
   1148 lineup[275,7]                                   1                 -4.057
   1159 lineup[161,7]                                   1                 -8.109
   1217 lineup[112,7]                                   1                 -3.803
   1281 lineup[318,7]                                   1                 -6.396
   1532 captain[161,7]                                  1                 -8.109
   1866 vicecap[355,7]                                  1                 -0.751
   2464 bench[519,7,2]                                  1               -0.18834
   2582 bench[230,7,0]                                  1               -0.09336
   2647 bench[197,7,1]                                  1               -0.72408
   3601 bench[538,7,3]                                  1              -0.001197
   3770 transfer_in[161,7]                              1                   0.24
   4461 tr_out_reg[365,7]                               1                 -0.285
   4481 itb[6]                                        0.1                      0
   4482 itb[7]                                          1                      0
   4484 ft[7]                                           1                   -1.5
